Route #1: 31 63 62 4 58
Route #2: 48 3 7 65 61
Route #3: 16 26 6 23 10 64 57 55 29 22 56 49
Route #4: 44 50 47 54 36 2 41 40 37 45 15 35 43
Route #5: 32 34 19
Route #6: 24 11 25 17 12 18 8 28 20 33 39 51 5 66 30 60 21 52 27 9 38 42
Route #7: 1 59 46 53 13 14
Route #8: 67
Route #9: 
Route #10: 
cost 1509.1837607787818
